3
3
6

16

0,4,8,11,4,11,8,14,14
0,4,8,11,4,11,8,14,14
0,4,8,11,4,11,8,14,14

1,5,8,11,5,11,8,14,14
1,5,9,12,5,12,9,14,14
1,5,9,12,5,12,9,14,14

2,6,9,12,6,12,9,15,15
2,6,9,12,6,12,9,15,15
2,6,10,13,6,13,10,15,15
3,7,10,13,7,13,10,15,15
3,7,10,13,7,13,10,15,15
3,7,10,13,7,13,10,15,15
